NAME: Ethane
FORMULA: C2H6
RT: 10.5
RRT: 20.2
RI: 400.7
MW: 30
CAS#: 74-84-0
Num Peaks: 14
2 2.00020e-03; 12 4.00040e-03; 13 1.00010e-02; 14 3.00030e-02; 15 4.40044e-02; 16 1.00010e-03; 
24 5.00050e-03; 25 3.50035e-02; 26 2.32223e-01; 27 3.32333e-01; 28 1.00000e+00; 29 2.15222e-01; 
30 2.62226e-01; 31 5.00050e-03; 

NAME: Ethylene
FORMULA: C2H4
RT: 11.2
RRT: 20.3
RI: 500.5
MW: 28
CAS#: 74-85-1
Num Peaks: 12
2 1.00010e-03; 12 5.00050e-03; 13 9.00090e-03; 14 2.10021e-02; 15 3.00030e-03; 24 2.30023e-02; 
25 7.81078e-02; 26 5.29553e-01; 27 6.23662e-01; 28 1.00000e+00; 29 2.30023e-02; 30 1.00010e-03; 
