Name: Peak1
Comments: Comment1
Formula: CCCHHH
Contributor: Contributor1
MW: 169
CAS#: 111-22-3;  EPA#: 111111
DB#: 10000
Num Peaks: 25
42 80; 43 20; 44 20; 54 8; 57 140; 
58 20; 59 30; 63 120; 65 40; 70 10; 
71 7; 84 20; 92 180; 94 50; 106 30; 
120 999; 121 60; 122 330; 123 20; 134 50; 
136 10; 154 40; 156 20; 169 40; 171 20; 

Name: Peak2
Comments: Comment2
Formula: CCCNNN
Contributor: Contributor2
MW: 203
CAS#: 222-33-4;  EPA#: 222222
DB#: 20000
Num Peaks: 47
27 220; 28 130; 29 20; 30 20; 32 20; 
39 7; 41 50; 42 210; 43 30; 44 9; 
52 2; 54 40; 55 20; 56 360; 57 50; 
61 4; 62 4; 63 540; 64 20; 65 170; 
66 4; 67 1; 69 5; 70 70; 77 2; 
78 10; 90 10; 91 20; 92 160; 93 10; 
94 60; 95 2; 105 4; 106 30; 118 40; 
120 6; 126 30; 128 10; 154 999; 155 40; 
156 640; 157 30; 158 100; 159 6; 168 30; 
170 20; 203 10; 

Name: Peak3
Comments: Comment3
Formula: CCCOOO
Contributor: Contributor3
MW: 155
CAS#: 333-44-5;  EPA#: 333333
DB#: 30000
Num Peaks: 69
15 35; 17 6; 18 21; 26 13; 27 132; 
28 47; 29 9; 30 21; 32 2; 39 5; 
40 6; 41 24; 42 166; 43 56; 44 214; 
45 7; 48 1; 49 15; 51 5; 52 4; 
53 1; 54 11; 55 11; 56 35; 57 37; 
58 48; 59 2; 61 4; 62 4; 63 229; 
64 6; 65 70; 66 1; 68 1; 70 35; 
71 29; 72 2; 76 2; 78 43; 80 12; 
82 1; 84 4; 88 3; 89 2; 90 8; 
91 3; 92 18; 93 1; 94 6; 104 1; 
105 2; 106 999; 107 46; 108 315; 109 14; 
118 7; 119 2; 120 58; 121 4; 122 16; 
123 1; 126 2; 128 1; 154 7; 155 36; 
156 6; 157 22; 158 2; 159 4; 

