Name: Test1
Formula: CHO
MW: 100
CASNO: 44444
Comment: Demo1
Num peaks: 34
42 17.98
43 131.88
50 15.99
51 69.94
52 32.97
53 94.91
54 9.99
55 72.93
56 5.00
57 24.98
58 9.99
63 24.98
64 9.99
65 79.93
66 24.98
67 61.94
68 10.99
74 8.99
75 9.99
76 6.99
77 263.76
78 57.95
79 249.77
80 74.93
81 3.00
89 16.98
91 271.76
92 112.90
93 999.00
94 94.91
95 19.98
103 17.98
104 6.99
105 124.89
106 34.97
107 119.89
108 244.78

Name: Test2
Formula: CHO
MW: 100
CASNO: 44444
Comment: Demo2
Num peaks: 50
26 0.70
42 8.19
43 999.00
44 24.98
45 7.39
50 2.80
51 8.79
52 2.70
53 4.10
55 9.59
56 1.10
57 9.79
58 1.80
63 5.20
64 2.20
65 28.67
66 1.50
67 3.60
68 2.60
69 18.08
75 0.60
77 9.49
78 6.19
79 3.00
80 0.60
82 5.69
83 0.70
85 4.60
86 0.70
104 125.09
105 14.09
106 0.90
107 1.70
115 13.19
116 5.10
117 143.37
118 23.88
119 3.50
120 0.80
121 1.00
127 1.30
128 2.70
129 19.88
130 2.80
131 9.79