NAME: Demo1
COMMENT: Comment1
FORMULA:           
MW:           
CAS:            
Num Peaks:   23
  36  488; 
  39  692; 
  41  936; 
  43  651; 
  47 10057; 
  48 2239; 
  49 3338; 
  50  712; 
  79 8286; 
  80  631; 
  81 8652; 
  82 1669; 
  83 45971; 
  84 1486; 
  85 28706; 
  86  671; 
  87 5171; 
  91 1995; 
  93 1547; 
 116  447; 
 127 4295; 
 129 5497; 
 131 1282; 
NAME: Demo2
COMMENT: Comment2
FORMULA:           
MW:           
CAS:            
Num Peaks:   36
  37 13815; 
  38 23426; 
  39 85984; 
  40 3175; 
  41 1458; 
  42  986; 
  43 4247; 
  44 1458; 
  47 4891; 
  48 3689; 
  49 19865; 
  50 1716; 
  51 5792; 
  53 1716; 
  55  943; 
  57  901; 
  60 1029; 
  61 1115; 
  62 1373; 
  63 3561; 
  65 1072; 
  71  943; 
  72 1844; 
  73 6779; 
  74 2231; 
  75 84482; 
  76 3046; 
  77 22869; 
  78 1072; 
  83 1973; 
  85 1415; 
 109 2531; 
 110 10812; 
 111 1501; 
 112 7036; 
 114 1072; 
NAME: Demo3
COMMENT: Comment3
FORMULA:           
MW:           
CAS:            
Num Peaks:   19
  37 6154; 
  38 10195; 
  39 28895; 
  40 2302; 
  50 13766; 
  51 13437; 
  52 3100; 
  61 3711; 
  62 5732; 
  63 14894; 
  64 3288; 
  65 18652; 
  66 3147; 
  74 1785; 
  89 7564; 
  90 3429; 
  91 173936; 
  92 75597; 
  93 5121; 
