Name: Demo1
Comment: Comment1
Formula: CHO
Num Peaks: 131
  41 4804;  42 1501;  43 4704;  44  300;  53 1802;
  55 4304;  57  500;  58  300;  60  300;  65  901;
  66  300;  67 2502;  68  701;  69 1501;  71  400;
  77 3103;  78  801;  79 3503;  80  500;  81 1702;
  82  300;  83  500;  91 5105;  92  701;  93 2302;
  94  601;  95 1601;  96  500;  97 1501; 103  500;
 104  200; 105 3003; 106  601; 107 2202; 108  601;
 109 1201; 110  300; 111  300; 115  601; 116  100;
 117 1201; 118  300; 119 1601; 120  701; 121 4704;
 122 3603; 123 2502; 124  601; 128  400; 129  601;
 130  100; 131 1001; 132  100; 133 1702; 134 1501;
 135 2002; 136 1601; 137  601; 139  300; 143  500;
 144  200; 145 1001; 146  300; 147 1802; 148  701;
 149  701; 157  300; 159  801; 160  500; 161 2402;
 162  901; 163 2102; 164  200; 165  400; 171  300;
 173  701; 174  100; 175  500; 185  300; 187  701;
 188  300; 189  801; 197  200; 199  200; 200  100;
 201  200; 202  100; 213  200; 214  200; 215  500;
 216  200; 225  500; 226  100; 227  200; 228  100;
 229  200; 230  500; 239  300; 241  601; 242  200;
 243 1101; 244  500; 245  100; 255  801; 256  901;
 257 3303; 258 4804; 259 1301; 272  300; 273  100;
 283  701; 284  100; 285  200; 286  100; 299  100;
 300 1001; 301 7607; 302 1601; 303  200; 311  601;
 312  100; 313  801; 314  100; 330  500; 331  100;
 332  200; 342 1301; 343  300; 360 9999; 361 2302;
 362  300;

Name: Demo2
Comment: Comment2
Formula: COH
Num Peaks: 170
  24  100;  25  140;  26  560;  27  820;  28 4520;
  29  650;  30  410;  31  300;  32  320;  36  150;
  37  310;  38  450;  39 2200;  40  590;  41 1700;
  42 2950;  43  440;  44  860;  45  200;  46   20;
  47   80;  48  100;  49  180;  50  900;  51 1520;
  52  600;  53  950;  54  580;  55 1200;  56  490;
  57  620;  58  280;  59  620;  60  100;  61  100;
  62  130;  63  210;  64  140;  65  530;  66  410;
  67  930;  68  810;  69  520;  70  350;  71  180;
  72  640;  73  150;  74  290;  75  200;  76  310;
  77 3100;  78 1190;  79  540;  80 1350;  81 2100;
  82 9999;  83 3210;  84  480;  85  180;  86  100;
  87   40;  88   10;  89  120;  90  100;  91  610;
  92  240;  93  500;  94 2640;  95  440;  96 1740;
  97  810;  98  140;  99  100; 100 1280; 101   80;
 102  100; 103  120; 104  150; 105 2540; 106  410;
 107  270; 108  590; 109  140; 110  200; 111  100;
 112  100; 113   40; 114   80; 115  140; 116  100;
 117  120; 118  200; 119  470; 120  310; 121  200;
 122 1320; 123  290; 124  140; 125  100; 126  100;
 127   80; 128  100; 129  100; 130  100; 131   40;
 132  100; 133  110; 134  120; 135  130; 136  100;
 137   20; 138  160; 139  100; 140  160; 141   40;
 142  100; 143  120; 144   40; 145   20; 146   30;
 147   40; 148  140; 149  100; 150  620; 151  190;
 152  420; 153  120; 154  150; 155  260; 156   80;
 157   40; 163   20; 164  100; 165  140; 166  310;
 167  100; 168  100; 169   40; 177   40; 178   90;
 179  140; 180  220; 181  520; 182 4470; 183  580;
 184  100; 185   40; 198  650; 199  140; 200   40;
 201   20; 210   40; 211   20; 212   10; 218   30;
 219   40; 220   10; 221   10; 222   20; 223   10;
 244   80; 245   10; 272  380; 273  100; 274   40;
 275   20; 303  780; 304  200; 305   80; 306   20;

Name: Demo3
COMMENT: Comment3
Formula: OHC
Num Peaks: 23
  37  210;  38  520;  39 1310;  43 2610;  44  210;
  45  260;  50  260;  51  200;  53  480;  61  140;
  62  330;  63  850;  64  640;  65  640;  66  110;
  81  330;  92 2840;  93  370; 120 9999; 121  920;
 138 5920; 139  450; 180  260;
